6 24 4 10
20 13 5 4 10 1 13 10 1 16 18 10 13 5 6 14 2 16 2 4 3 11 18 10 
7.42 6.43 5.69 2.8 2.76 6.06 2.14 6.83 2.8 2.49 3.97 2.92 5.44 6.36 2.09 2.19 7.93 3.03 4.69 6.59 3.02 5.65 2.91 6.47 
7.18 0.74 2.86 0.47 4.31 7.46 0.76 1.47 6.81 4.86 0.63 2.24 2.83 0.65 2.75 2.75 2.71 2.94 1.19 7.11 1.12 4.35 0.35 1.08 
0.78 6.55 4.93 7.67 3.73 5.44 3.35 5.98 5.55 7.22 0.75 6.41 0.22 0.3 6.01 3.48 0.66 5.74 6.79 3.99 1.49 7.65 3.53 7.86 
1.77 5.11 5.17 4.34 0.8 3.95 7.89 1.44 1.58 6.73 1.05 5.73 7.5 1.95 3.39 2.4 7.3 7.62 2.69 2.62 7.56 7.75 3.91 3.85 
4 4 4 4 4 4 4 4 4 4 4 4 4 4 4 4 4 4 4 4 4 4 4 4 
2.7 0.29 4.56 0.06 1.06 1.14 4.54 4.74 0.1 2.78 5.88 4.94 2.9 2.74 1.33 0.03 1.13 3.16 2.95 6.61 4.81 5.41 1.56 5.27 
1 1 1 1 1 1 1 1 1 1 1 1 1 1 1 1 1 1 1 1 1 1 1 1 
1 1 1 1 1 1 1 1 1 1 1 1 1 1 1 1 1 1 1 1 1 1 1 1 
1 1 1 1 1 1 1 1 1 1 1 1 1 1 1 1 1 1 1 1 1 1 1 1 
1 1 1 1 1 1 1 1 1 1 1 1 1 1 1 1 1 1 1 1 1 1 1 1 
1 1 1 1 1 1 1 1 1 1 1 1 1 1 1 1 1 1 1 1 1 1 1 1 
1 1 1 1 1 1 1 1 1 1 1 1 1 1 1 1 1 1 1 1 1 1 1 1 
0.01 0.01 0.01 0.01 0.01 0.01 0.01 0.01 0.01 0.01 0.01 0.01 0.01 0.01 0.01 0.01 0.01 0.01 0.01 0.01 0.01 0.01 0.01 0.01 
0.02 0.02 0.02 0.02 0.02 0.02 0.02 0.02 0.02 0.02 0.02 0.02 0.02 0.02 0.02 0.02 0.02 0.02 0.02 0.02 0.02 0.02 0.02 0.02 
0.03 0.03 0.03 0.03 0.03 0.03 0.03 0.03 0.03 0.03 0.03 0.03 0.03 0.03 0.03 0.03 0.03 0.03 0.03 0.03 0.03 0.03 0.03 0.03 
0.04 0.04 0.04 0.04 0.04 0.04 0.04 0.04 0.04 0.04 0.04 0.04 0.04 0.04 0.04 0.04 0.04 0.04 0.04 0.04 0.04 0.04 0.04 0.04 
0.05 0.05 0.05 0.05 0.05 0.05 0.05 0.05 0.05 0.05 0.05 0.05 0.05 0.05 0.05 0.05 0.05 0.05 0.05 0.05 0.05 0.05 0.05 0.05 
1 1 1 1 1 1 1 1 1 1 1 1 1 1 1 1 1 1 1 1 1 1 1 1 
